p cnf 7230 16
-4958 -6433 -6436 0
-5801 6429 -6432 0
-6434 6436 0
-6430 6432 0
6433 6434 0
-6429 6430 0
4958 -6434 0
5801 -6430 0
6435 6436 0
6293 -6436 0
-6293 -6435 0
6431 6432 0
6291 -6432 0
-6291 -6431 0
6303 -6438 0
4960 -6438 0
